proyfinal/src/viki/013/experimentInOfficeAgust.take6.output/6e6a675b-3cf0-435c-bfb7-13ded257a212.als.out
Reading from standard input... Use '--help' for help.
============================[ Problem Statistics ]=============================
|                                                                             |
|  Number of variables:         87638                                         |
|  Number of clauses:          161767                                         |
|  Parse time:                   0.04 s                                       |
|                                                                             |
============================[ Search Statistics ]==============================
| Conflicts |          ORIGINAL         |          LEARNT          | Progress |
|           |    Vars  Clauses Literals |    Limit  Clauses Lit/Cl |          |
===============================================================================
|       100 |   63672   109870   274713 |    40285      100     55 | 27.347 % |
|       250 |   63672   109870   274713 |    44314      250     57 | 27.347 % |
|       475 |   63672   109870   274713 |    48745      475     66 | 27.347 % |
|       812 |   63626   109754   274448 |    53620      810     68 | 27.399 % |
|      1318 |   63626   109680   274277 |    58982     1316     72 | 27.399 % |
|      2077 |   50386    72147   181875 |    64880     2055     85 | 42.507 % |
|      3216 |   50100    70917   179005 |    71368     3169     77 | 42.833 % |
|      4924 |   49435    69468   175476 |    78505     4834     71 | 43.592 % |
|      7486 |   48829    65976   167095 |    86355     7346     61 | 44.283 % |
|     11330 |   47968    62923   159536 |    94991    10930     55 | 45.266 % |
===============================================================================
restarts              : 53
conflicts             : 12376          (7069 /sec)
decisions             : 39615          (0.00 % random) (22626 /sec)
propagations          : 19697913       (11250460 /sec)
conflict literals     : 635517         (43.30 % deleted)
Memory used           : 32.09 MB
CPU time              : 1.75085 s

UNSATISFIABLE
